n = 30;
lu = [|-169, 183
      |-844, 299
      |-431, 827
      |-839, -104
      |-768, -154
      |-273, -32
      |-707, -202
      |147, 296
      |-583, 784
      |-703, -339
      |-190, 350
      |-897, 690
      |-583, 641
      |-724, 172
      |-775, 740
      |-378, -144
      |230, 615
      |543, 817
      |-778, 739
      |-559, -108
      |305, 889
      |-266, 403
      |-303, -119
      |-465, -258
      |-479, 27
      |-533, 196
      |-632, 343
      |273, 571
      |-98, 213
      |-417, -32|];
